TC_ILP/feedback_points_dfg__7_1.0.lp
Minimize
M1 + M2
Subject To
x0,8 + x0,9 = 1
x1,9 = 1
x2,9 + x2,10 = 1
x3,8 = 1
x4,7 = 1
x5,6 = 1
x6,4 = 1
x7,6 + x7,7 + x7,8 + x7,9 = 1
x8,7 + x8,8 + x8,9 = 1
x9,7 + x9,8 + x9,9 + x9,10 = 1
x10,6 + x10,7 + x10,8 = 1
x11,5 + x11,6 + x11,7 = 1
x12,4 + x12,5 + x12,6 = 1
x13,2 = 1
x14,3 + x14,4 + x14,5 + x14,6 + x14,7 + x14,8 + x14,9 = 1
x15,2 + x15,3 + x15,4 + x15,5 + x15,6 + x15,7 + x15,8 = 1
x16,1 = 1
x17,6 + x17,7 + x17,8 + x17,9 = 1
x18,7 + x18,8 + x18,9 = 1
x19,7 + x19,8 + x19,9 + x19,10 = 1
x20,6 + x20,7 + x20,8 = 1
x21,5 + x21,6 + x21,7 = 1
x22,4 + x22,5 + x22,6 = 1
x23,2 = 1
x24,3 + x24,4 + x24,5 + x24,6 + x24,7 + x24,8 + x24,9 = 1
x25,2 + x25,3 + x25,4 + x25,5 + x25,6 + x25,7 + x25,8 = 1
x26,1 = 1
x27,6 + x27,7 + x27,8 + x27,9 = 1
x28,7 + x28,8 + x28,9 = 1
x29,7 + x29,8 + x29,9 + x29,10 = 1
x30,6 + x30,7 + x30,8 = 1
x31,5 + x31,6 + x31,7 = 1
x32,4 + x32,5 + x32,6 = 1
x33,2 = 1
x34,3 + x34,4 + x34,5 + x34,6 + x34,7 + x34,8 + x34,9 = 1
x35,2 + x35,3 + x35,4 + x35,5 + x35,6 + x35,7 + x35,8 = 1
x36,1 = 1
x37,4 + x37,5 + x37,6 + x37,7 + x37,8 + x37,9 = 1
x38,5 + x38,6 + x38,7 + x38,8 + x38,9 = 1
x39,5 + x39,6 + x39,7 + x39,8 + x39,9 + x39,10 = 1
x40,4 + x40,5 + x40,6 + x40,7 + x40,8 = 1
x41,3 + x41,4 + x41,5 + x41,6 + x41,7 = 1
x42,2 + x42,3 + x42,4 + x42,5 + x42,6 = 1
x43,3 + x43,4 + x43,5 + x43,6 + x43,7 + x43,8 + x43,9 = 1
x44,2 + x44,3 + x44,4 + x44,5 + x44,6 + x44,7 + x44,8 = 1
x45,1 + x45,2 + x45,3 + x45,4 + x45,5 = 1
x46,4 + x46,5 + x46,6 + x46,7 + x46,8 + x46,9 + x46,10 = 1
x47,3 + x47,4 + x47,5 + x47,6 + x47,7 + x47,8 + x47,9 = 1
x48,2 + x48,3 + x48,4 + x48,5 + x48,6 + x48,7 + x48,8 = 1
x49,4 + x49,5 + x49,6 + x49,7 + x49,8 + x49,9 + x49,10 = 1
x50,3 + x50,4 + x50,5 + x50,6 + x50,7 + x50,8 + x50,9 = 1
x51,2 + x51,3 + x51,4 + x51,5 + x51,6 + x51,7 + x51,8 = 1
x52,1 + x52,2 + x52,3 + x52,4 + x52,5 + x52,6 + x52,7 = 1
x16,1 + x26,1 + x36,1 + x45,1 + x52,1 - M2 <= 0
x15,2 + x25,2 + x35,2 + x42,2 + x44,2 + x45,2 + x48,2 + x51,2 + x52,2 - M2 <= 0
x13,2 + x13,1 + x23,2 + x23,1 + x33,2 + x33,1 - M1 <= 0
x15,3 + x25,3 + x35,3 + x41,3 + x42,3 + x44,3 + x45,3 + x47,3 + x48,3 + x50,3 + x51,3 + x52,3 - M2 <= 0
x13,3 + x13,2 + x14,3 + x14,2 + x23,3 + x23,2 + x24,3 + x24,2 + x33,3 + x33,2 + x34,3 + x34,2 + x43,3 + x43,2 - M1 <= 0
x12,4 + x15,4 + x22,4 + x25,4 + x32,4 + x35,4 + x40,4 + x41,4 + x42,4 + x44,4 + x45,4 + x46,4 + x47,4 + x48,4 + x49,4 + x50,4 + x51,4 + x52,4 - M2 <= 0
x6,4 + x6,3 + x14,4 + x14,3 + x24,4 + x24,3 + x34,4 + x34,3 + x37,4 + x37,3 + x43,4 + x43,3 - M1 <= 0
x11,5 + x12,5 + x15,5 + x21,5 + x22,5 + x25,5 + x31,5 + x32,5 + x35,5 + x39,5 + x40,5 + x41,5 + x42,5 + x44,5 + x45,5 + x46,5 + x47,5 + x48,5 + x49,5 + x50,5 + x51,5 + x52,5 - M2 <= 0
x6,5 + x6,4 + x14,5 + x14,4 + x24,5 + x24,4 + x34,5 + x34,4 + x37,5 + x37,4 + x38,5 + x38,4 + x43,5 + x43,4 - M1 <= 0
x5,6 + x10,6 + x11,6 + x12,6 + x15,6 + x20,6 + x21,6 + x22,6 + x25,6 + x30,6 + x31,6 + x32,6 + x35,6 + x39,6 + x40,6 + x41,6 + x42,6 + x44,6 + x46,6 + x47,6 + x48,6 + x49,6 + x50,6 + x51,6 + x52,6 - M2 <= 0
x7,6 + x7,5 + x14,6 + x14,5 + x17,6 + x17,5 + x24,6 + x24,5 + x27,6 + x27,5 + x34,6 + x34,5 + x37,6 + x37,5 + x38,6 + x38,5 + x43,6 + x43,5 - M1 <= 0
x4,7 + x9,7 + x10,7 + x11,7 + x15,7 + x19,7 + x20,7 + x21,7 + x25,7 + x29,7 + x30,7 + x31,7 + x35,7 + x39,7 + x40,7 + x41,7 + x44,7 + x46,7 + x47,7 + x48,7 + x49,7 + x50,7 + x51,7 + x52,7 - M2 <= 0
x7,7 + x7,6 + x8,7 + x8,6 + x14,7 + x14,6 + x17,7 + x17,6 + x18,7 + x18,6 + x24,7 + x24,6 + x27,7 + x27,6 + x28,7 + x28,6 + x34,7 + x34,6 + x37,7 + x37,6 + x38,7 + x38,6 + x43,7 + x43,6 - M1 <= 0
x3,8 + x9,8 + x10,8 + x15,8 + x19,8 + x20,8 + x25,8 + x29,8 + x30,8 + x35,8 + x39,8 + x40,8 + x44,8 + x46,8 + x47,8 + x48,8 + x49,8 + x50,8 + x51,8 - M2 <= 0
x0,8 + x0,7 + x7,8 + x7,7 + x8,8 + x8,7 + x14,8 + x14,7 + x17,8 + x17,7 + x18,8 + x18,7 + x24,8 + x24,7 + x27,8 + x27,7 + x28,8 + x28,7 + x34,8 + x34,7 + x37,8 + x37,7 + x38,8 + x38,7 + x43,8 + x43,7 - M1 <= 0
x2,9 + x9,9 + x19,9 + x29,9 + x39,9 + x46,9 + x47,9 + x49,9 + x50,9 - M2 <= 0
x0,9 + x0,8 + x1,9 + x1,8 + x7,9 + x7,8 + x8,9 + x8,8 + x14,9 + x14,8 + x17,9 + x17,8 + x18,9 + x18,8 + x24,9 + x24,8 + x27,9 + x27,8 + x28,9 + x28,8 + x34,9 + x34,8 + x37,9 + x37,8 + x38,9 + x38,8 + x43,9 + x43,8 - M1 <= 0
x2,10 + x9,10 + x19,10 + x29,10 + x39,10 + x46,10 + x49,10 - M2 <= 0
x0,10 + x0,9 + x1,10 + x1,9 + x7,10 + x7,9 + x8,10 + x8,9 + x14,10 + x14,9 + x17,10 + x17,9 + x18,10 + x18,9 + x24,10 + x24,9 + x27,10 + x27,9 + x28,10 + x28,9 + x34,10 + x34,9 + x37,10 + x37,9 + x38,10 + x38,9 + x43,10 + x43,9 - M1 <= 0
8 x3,8 - 9 x1,9 <= -1
8 x3,8 - 9 x2,9 - 10 x2,10 <= -1
7 x4,7 - 8 x0,8 - 9 x0,9 <= -1
7 x4,7 - 8 x3,8 <= -1
6 x5,6 - 7 x4,7 <= -1
4 x6,4 - 6 x5,6 <= -2
6 x10,6 + 7 x10,7 + 8 x10,8 - 7 x8,7 - 8 x8,8 - 9 x8,9 <= -1
6 x10,6 + 7 x10,7 + 8 x10,8 - 7 x9,7 - 8 x9,8 - 9 x9,9 - 10 x9,10 <= -1
5 x11,5 + 6 x11,6 + 7 x11,7 - 6 x7,6 - 7 x7,7 - 8 x7,8 - 9 x7,9 <= -1
5 x11,5 + 6 x11,6 + 7 x11,7 - 6 x10,6 - 7 x10,7 - 8 x10,8 <= -1
4 x12,4 + 5 x12,5 + 6 x12,6 - 5 x11,5 - 6 x11,6 - 7 x11,7 <= -1
2 x13,2 - 4 x6,4 <= -2
2 x13,2 - 4 x12,4 - 5 x12,5 - 6 x12,6 <= -2
2 x15,2 + 3 x15,3 + 4 x15,4 + 5 x15,5 + 6 x15,6 + 7 x15,7 + 8 x15,8 - 3 x14,3 - 4 x14,4 - 5 x14,5 - 6 x14,6 - 7 x14,7 - 8 x14,8 - 9 x14,9 <= -1
1 x16,1 - 2 x13,2 <= -1
1 x16,1 - 2 x15,2 - 3 x15,3 - 4 x15,4 - 5 x15,5 - 6 x15,6 - 7 x15,7 - 8 x15,8 <= -1
6 x20,6 + 7 x20,7 + 8 x20,8 - 7 x18,7 - 8 x18,8 - 9 x18,9 <= -1
6 x20,6 + 7 x20,7 + 8 x20,8 - 7 x19,7 - 8 x19,8 - 9 x19,9 - 10 x19,10 <= -1
5 x21,5 + 6 x21,6 + 7 x21,7 - 6 x17,6 - 7 x17,7 - 8 x17,8 - 9 x17,9 <= -1
5 x21,5 + 6 x21,6 + 7 x21,7 - 6 x20,6 - 7 x20,7 - 8 x20,8 <= -1
4 x22,4 + 5 x22,5 + 6 x22,6 - 5 x21,5 - 6 x21,6 - 7 x21,7 <= -1
2 x23,2 - 4 x6,4 <= -2
2 x23,2 - 4 x22,4 - 5 x22,5 - 6 x22,6 <= -2
2 x25,2 + 3 x25,3 + 4 x25,4 + 5 x25,5 + 6 x25,6 + 7 x25,7 + 8 x25,8 - 3 x24,3 - 4 x24,4 - 5 x24,5 - 6 x24,6 - 7 x24,7 - 8 x24,8 - 9 x24,9 <= -1
1 x26,1 - 2 x23,2 <= -1
1 x26,1 - 2 x25,2 - 3 x25,3 - 4 x25,4 - 5 x25,5 - 6 x25,6 - 7 x25,7 - 8 x25,8 <= -1
6 x30,6 + 7 x30,7 + 8 x30,8 - 7 x28,7 - 8 x28,8 - 9 x28,9 <= -1
6 x30,6 + 7 x30,7 + 8 x30,8 - 7 x29,7 - 8 x29,8 - 9 x29,9 - 10 x29,10 <= -1
5 x31,5 + 6 x31,6 + 7 x31,7 - 6 x27,6 - 7 x27,7 - 8 x27,8 - 9 x27,9 <= -1
5 x31,5 + 6 x31,6 + 7 x31,7 - 6 x30,6 - 7 x30,7 - 8 x30,8 <= -1
4 x32,4 + 5 x32,5 + 6 x32,6 - 5 x31,5 - 6 x31,6 - 7 x31,7 <= -1
2 x33,2 - 4 x6,4 <= -2
2 x33,2 - 4 x32,4 - 5 x32,5 - 6 x32,6 <= -2
2 x35,2 + 3 x35,3 + 4 x35,4 + 5 x35,5 + 6 x35,6 + 7 x35,7 + 8 x35,8 - 3 x34,3 - 4 x34,4 - 5 x34,5 - 6 x34,6 - 7 x34,7 - 8 x34,8 - 9 x34,9 <= -1
1 x36,1 - 2 x33,2 <= -1
1 x36,1 - 2 x35,2 - 3 x35,3 - 4 x35,4 - 5 x35,5 - 6 x35,6 - 7 x35,7 - 8 x35,8 <= -1
4 x40,4 + 5 x40,5 + 6 x40,6 + 7 x40,7 + 8 x40,8 - 5 x38,5 - 6 x38,6 - 7 x38,7 - 8 x38,8 - 9 x38,9 <= -1
4 x40,4 + 5 x40,5 + 6 x40,6 + 7 x40,7 + 8 x40,8 - 5 x39,5 - 6 x39,6 - 7 x39,7 - 8 x39,8 - 9 x39,9 - 10 x39,10 <= -1
3 x41,3 + 4 x41,4 + 5 x41,5 + 6 x41,6 + 7 x41,7 - 4 x37,4 - 5 x37,5 - 6 x37,6 - 7 x37,7 - 8 x37,8 - 9 x37,9 <= -1
3 x41,3 + 4 x41,4 + 5 x41,5 + 6 x41,6 + 7 x41,7 - 4 x40,4 - 5 x40,5 - 6 x40,6 - 7 x40,7 - 8 x40,8 <= -1
2 x42,2 + 3 x42,3 + 4 x42,4 + 5 x42,5 + 6 x42,6 - 3 x41,3 - 4 x41,4 - 5 x41,5 - 6 x41,6 - 7 x41,7 <= -1
2 x44,2 + 3 x44,3 + 4 x44,4 + 5 x44,5 + 6 x44,6 + 7 x44,7 + 8 x44,8 - 3 x43,3 - 4 x43,4 - 5 x43,5 - 6 x43,6 - 7 x43,7 - 8 x43,8 - 9 x43,9 <= -1
1 x45,1 + 2 x45,2 + 3 x45,3 + 4 x45,4 + 5 x45,5 - 2 x42,2 - 3 x42,3 - 4 x42,4 - 5 x42,5 - 6 x42,6 <= -1
1 x45,1 + 2 x45,2 + 3 x45,3 + 4 x45,4 + 5 x45,5 - 2 x44,2 - 3 x44,3 - 4 x44,4 - 5 x44,5 - 6 x44,6 - 7 x44,7 - 8 x44,8 <= -1
3 x47,3 + 4 x47,4 + 5 x47,5 + 6 x47,6 + 7 x47,7 + 8 x47,8 + 9 x47,9 - 4 x46,4 - 5 x46,5 - 6 x46,6 - 7 x46,7 - 8 x46,8 - 9 x46,9 - 10 x46,10 <= -1
2 x48,2 + 3 x48,3 + 4 x48,4 + 5 x48,5 + 6 x48,6 + 7 x48,7 + 8 x48,8 - 3 x47,3 - 4 x47,4 - 5 x47,5 - 6 x47,6 - 7 x47,7 - 8 x47,8 - 9 x47,9 <= -1
3 x50,3 + 4 x50,4 + 5 x50,5 + 6 x50,6 + 7 x50,7 + 8 x50,8 + 9 x50,9 - 4 x49,4 - 5 x49,5 - 6 x49,6 - 7 x49,7 - 8 x49,8 - 9 x49,9 - 10 x49,10 <= -1
2 x51,2 + 3 x51,3 + 4 x51,4 + 5 x51,5 + 6 x51,6 + 7 x51,7 + 8 x51,8 - 3 x50,3 - 4 x50,4 - 5 x50,5 - 6 x50,6 - 7 x50,7 - 8 x50,8 - 9 x50,9 <= -1
1 x52,1 + 2 x52,2 + 3 x52,3 + 4 x52,4 + 5 x52,5 + 6 x52,6 + 7 x52,7 - 2 x48,2 - 3 x48,3 - 4 x48,4 - 5 x48,5 - 6 x48,6 - 7 x48,7 - 8 x48,8 <= -1
1 x52,1 + 2 x52,2 + 3 x52,3 + 4 x52,4 + 5 x52,5 + 6 x52,6 + 7 x52,7 - 2 x51,2 - 3 x51,3 - 4 x51,4 - 5 x51,5 - 6 x51,6 - 7 x51,7 - 8 x51,8 <= -1
Bounds
0 <= x0,8 <= 1
0 <= x0,9 <= 1
0 <= x1,9 <= 1
0 <= x2,9 <= 1
0 <= x2,10 <= 1
0 <= x3,8 <= 1
0 <= x4,7 <= 1
0 <= x5,6 <= 1
0 <= x6,4 <= 1
0 <= x7,6 <= 1
0 <= x7,7 <= 1
0 <= x7,8 <= 1
0 <= x7,9 <= 1
0 <= x8,7 <= 1
0 <= x8,8 <= 1
0 <= x8,9 <= 1
0 <= x9,7 <= 1
0 <= x9,8 <= 1
0 <= x9,9 <= 1
0 <= x9,10 <= 1
0 <= x10,6 <= 1
0 <= x10,7 <= 1
0 <= x10,8 <= 1
0 <= x11,5 <= 1
0 <= x11,6 <= 1
0 <= x11,7 <= 1
0 <= x12,4 <= 1
0 <= x12,5 <= 1
0 <= x12,6 <= 1
0 <= x13,2 <= 1
0 <= x14,3 <= 1
0 <= x14,4 <= 1
0 <= x14,5 <= 1
0 <= x14,6 <= 1
0 <= x14,7 <= 1
0 <= x14,8 <= 1
0 <= x14,9 <= 1
0 <= x15,2 <= 1
0 <= x15,3 <= 1
0 <= x15,4 <= 1
0 <= x15,5 <= 1
0 <= x15,6 <= 1
0 <= x15,7 <= 1
0 <= x15,8 <= 1
0 <= x16,1 <= 1
0 <= x17,6 <= 1
0 <= x17,7 <= 1
0 <= x17,8 <= 1
0 <= x17,9 <= 1
0 <= x18,7 <= 1
0 <= x18,8 <= 1
0 <= x18,9 <= 1
0 <= x19,7 <= 1
0 <= x19,8 <= 1
0 <= x19,9 <= 1
0 <= x19,10 <= 1
0 <= x20,6 <= 1
0 <= x20,7 <= 1
0 <= x20,8 <= 1
0 <= x21,5 <= 1
0 <= x21,6 <= 1
0 <= x21,7 <= 1
0 <= x22,4 <= 1
0 <= x22,5 <= 1
0 <= x22,6 <= 1
0 <= x23,2 <= 1
0 <= x24,3 <= 1
0 <= x24,4 <= 1
0 <= x24,5 <= 1
0 <= x24,6 <= 1
0 <= x24,7 <= 1
0 <= x24,8 <= 1
0 <= x24,9 <= 1
0 <= x25,2 <= 1
0 <= x25,3 <= 1
0 <= x25,4 <= 1
0 <= x25,5 <= 1
0 <= x25,6 <= 1
0 <= x25,7 <= 1
0 <= x25,8 <= 1
0 <= x26,1 <= 1
0 <= x27,6 <= 1
0 <= x27,7 <= 1
0 <= x27,8 <= 1
0 <= x27,9 <= 1
0 <= x28,7 <= 1
0 <= x28,8 <= 1
0 <= x28,9 <= 1
0 <= x29,7 <= 1
0 <= x29,8 <= 1
0 <= x29,9 <= 1
0 <= x29,10 <= 1
0 <= x30,6 <= 1
0 <= x30,7 <= 1
0 <= x30,8 <= 1
0 <= x31,5 <= 1
0 <= x31,6 <= 1
0 <= x31,7 <= 1
0 <= x32,4 <= 1
0 <= x32,5 <= 1
0 <= x32,6 <= 1
0 <= x33,2 <= 1
0 <= x34,3 <= 1
0 <= x34,4 <= 1
0 <= x34,5 <= 1
0 <= x34,6 <= 1
0 <= x34,7 <= 1
0 <= x34,8 <= 1
0 <= x34,9 <= 1
0 <= x35,2 <= 1
0 <= x35,3 <= 1
0 <= x35,4 <= 1
0 <= x35,5 <= 1
0 <= x35,6 <= 1
0 <= x35,7 <= 1
0 <= x35,8 <= 1
0 <= x36,1 <= 1
0 <= x37,4 <= 1
0 <= x37,5 <= 1
0 <= x37,6 <= 1
0 <= x37,7 <= 1
0 <= x37,8 <= 1
0 <= x37,9 <= 1
0 <= x38,5 <= 1
0 <= x38,6 <= 1
0 <= x38,7 <= 1
0 <= x38,8 <= 1
0 <= x38,9 <= 1
0 <= x39,5 <= 1
0 <= x39,6 <= 1
0 <= x39,7 <= 1
0 <= x39,8 <= 1
0 <= x39,9 <= 1
0 <= x39,10 <= 1
0 <= x40,4 <= 1
0 <= x40,5 <= 1
0 <= x40,6 <= 1
0 <= x40,7 <= 1
0 <= x40,8 <= 1
0 <= x41,3 <= 1
0 <= x41,4 <= 1
0 <= x41,5 <= 1
0 <= x41,6 <= 1
0 <= x41,7 <= 1
0 <= x42,2 <= 1
0 <= x42,3 <= 1
0 <= x42,4 <= 1
0 <= x42,5 <= 1
0 <= x42,6 <= 1
0 <= x43,3 <= 1
0 <= x43,4 <= 1
0 <= x43,5 <= 1
0 <= x43,6 <= 1
0 <= x43,7 <= 1
0 <= x43,8 <= 1
0 <= x43,9 <= 1
0 <= x44,2 <= 1
0 <= x44,3 <= 1
0 <= x44,4 <= 1
0 <= x44,5 <= 1
0 <= x44,6 <= 1
0 <= x44,7 <= 1
0 <= x44,8 <= 1
0 <= x45,1 <= 1
0 <= x45,2 <= 1
0 <= x45,3 <= 1
0 <= x45,4 <= 1
0 <= x45,5 <= 1
0 <= x46,4 <= 1
0 <= x46,5 <= 1
0 <= x46,6 <= 1
0 <= x46,7 <= 1
0 <= x46,8 <= 1
0 <= x46,9 <= 1
0 <= x46,10 <= 1
0 <= x47,3 <= 1
0 <= x47,4 <= 1
0 <= x47,5 <= 1
0 <= x47,6 <= 1
0 <= x47,7 <= 1
0 <= x47,8 <= 1
0 <= x47,9 <= 1
0 <= x48,2 <= 1
0 <= x48,3 <= 1
0 <= x48,4 <= 1
0 <= x48,5 <= 1
0 <= x48,6 <= 1
0 <= x48,7 <= 1
0 <= x48,8 <= 1
0 <= x49,4 <= 1
0 <= x49,5 <= 1
0 <= x49,6 <= 1
0 <= x49,7 <= 1
0 <= x49,8 <= 1
0 <= x49,9 <= 1
0 <= x49,10 <= 1
0 <= x50,3 <= 1
0 <= x50,4 <= 1
0 <= x50,5 <= 1
0 <= x50,6 <= 1
0 <= x50,7 <= 1
0 <= x50,8 <= 1
0 <= x50,9 <= 1
0 <= x51,2 <= 1
0 <= x51,3 <= 1
0 <= x51,4 <= 1
0 <= x51,5 <= 1
0 <= x51,6 <= 1
0 <= x51,7 <= 1
0 <= x51,8 <= 1
0 <= x52,1 <= 1
0 <= x52,2 <= 1
0 <= x52,3 <= 1
0 <= x52,4 <= 1
0 <= x52,5 <= 1
0 <= x52,6 <= 1
0 <= x52,7 <= 1
M1 >= 1
M2 >= 1
Generals
x0,8
x0,9
x1,9
x2,9
x2,10
x3,8
x4,7
x5,6
x6,4
x7,6
x7,7
x7,8
x7,9
x8,7
x8,8
x8,9
x9,7
x9,8
x9,9
x9,10
x10,6
x10,7
x10,8
x11,5
x11,6
x11,7
x12,4
x12,5
x12,6
x13,2
x14,3
x14,4
x14,5
x14,6
x14,7
x14,8
x14,9
x15,2
x15,3
x15,4
x15,5
x15,6
x15,7
x15,8
x16,1
x17,6
x17,7
x17,8
x17,9
x18,7
x18,8
x18,9
x19,7
x19,8
x19,9
x19,10
x20,6
x20,7
x20,8
x21,5
x21,6
x21,7
x22,4
x22,5
x22,6
x23,2
x24,3
x24,4
x24,5
x24,6
x24,7
x24,8
x24,9
x25,2
x25,3
x25,4
x25,5
x25,6
x25,7
x25,8
x26,1
x27,6
x27,7
x27,8
x27,9
x28,7
x28,8
x28,9
x29,7
x29,8
x29,9
x29,10
x30,6
x30,7
x30,8
x31,5
x31,6
x31,7
x32,4
x32,5
x32,6
x33,2
x34,3
x34,4
x34,5
x34,6
x34,7
x34,8
x34,9
x35,2
x35,3
x35,4
x35,5
x35,6
x35,7
x35,8
x36,1
x37,4
x37,5
x37,6
x37,7
x37,8
x37,9
x38,5
x38,6
x38,7
x38,8
x38,9
x39,5
x39,6
x39,7
x39,8
x39,9
x39,10
x40,4
x40,5
x40,6
x40,7
x40,8
x41,3
x41,4
x41,5
x41,6
x41,7
x42,2
x42,3
x42,4
x42,5
x42,6
x43,3
x43,4
x43,5
x43,6
x43,7
x43,8
x43,9
x44,2
x44,3
x44,4
x44,5
x44,6
x44,7
x44,8
x45,1
x45,2
x45,3
x45,4
x45,5
x46,4
x46,5
x46,6
x46,7
x46,8
x46,9
x46,10
x47,3
x47,4
x47,5
x47,6
x47,7
x47,8
x47,9
x48,2
x48,3
x48,4
x48,5
x48,6
x48,7
x48,8
x49,4
x49,5
x49,6
x49,7
x49,8
x49,9
x49,10
x50,3
x50,4
x50,5
x50,6
x50,7
x50,8
x50,9
x51,2
x51,3
x51,4
x51,5
x51,6
x51,7
x51,8
x52,1
x52,2
x52,3
x52,4
x52,5
x52,6
x52,7
M1
M2
End
