TC_ILP/feedback_points_dfg__7_1.0.sol
<?xml version = "1.0" encoding="UTF-8" standalone="yes"?>
<CPLEXSolution version="1.2">
 <header
   problemName="feedback_points_dfg__7_1.0.lp"
   solutionName="incumbent"
   solutionIndex="-1"
   objectiveValue="9"
   solutionTypeValue="3"
   solutionTypeString="primal"
   solutionStatusValue="101"
   solutionStatusString="integer optimal solution"
   solutionMethodString="mip"
   primalFeasible="1"
   dualFeasible="1"
   MIPNodes="0"
   MIPIterations="170"
   writeLevel="1"/>
 <quality
   epInt="1.0000000000000001e-05"
   epRHS="9.9999999999999995e-07"
   maxIntInfeas="0"
   maxPrimalInfeas="0"
   maxX="5"
   maxSlack="4"/>
 <linearConstraints>
  <constraint name="c1" index="0" slack="0"/>
  <constraint name="c2" index="1" slack="0"/>
  <constraint name="c3" index="2" slack="0"/>
  <constraint name="c4" index="3" slack="0"/>
  <constraint name="c5" index="4" slack="0"/>
  <constraint name="c6" index="5" slack="0"/>
  <constraint name="c7" index="6" slack="0"/>
  <constraint name="c8" index="7" slack="0"/>
  <constraint name="c9" index="8" slack="0"/>
  <constraint name="c10" index="9" slack="0"/>
  <constraint name="c11" index="10" slack="0"/>
  <constraint name="c12" index="11" slack="0"/>
  <constraint name="c13" index="12" slack="0"/>
  <constraint name="c14" index="13" slack="0"/>
  <constraint name="c15" index="14" slack="0"/>
  <constraint name="c16" index="15" slack="0"/>
  <constraint name="c17" index="16" slack="0"/>
  <constraint name="c18" index="17" slack="0"/>
  <constraint name="c19" index="18" slack="0"/>
  <constraint name="c20" index="19" slack="0"/>
  <constraint name="c21" index="20" slack="0"/>
  <constraint name="c22" index="21" slack="0"/>
  <constraint name="c23" index="22" slack="0"/>
  <constraint name="c24" index="23" slack="0"/>
  <constraint name="c25" index="24" slack="0"/>
  <constraint name="c26" index="25" slack="0"/>
  <constraint name="c27" index="26" slack="0"/>
  <constraint name="c28" index="27" slack="0"/>
  <constraint name="c29" index="28" slack="0"/>
  <constraint name="c30" index="29" slack="0"/>
  <constraint name="c31" index="30" slack="0"/>
  <constraint name="c32" index="31" slack="0"/>
  <constraint name="c33" index="32" slack="0"/>
  <constraint name="c34" index="33" slack="0"/>
  <constraint name="c35" index="34" slack="0"/>
  <constraint name="c36" index="35" slack="0"/>
  <constraint name="c37" index="36" slack="0"/>
  <constraint name="c38" index="37" slack="0"/>
  <constraint name="c39" index="38" slack="0"/>
  <constraint name="c40" index="39" slack="0"/>
  <constraint name="c41" index="40" slack="0"/>
  <constraint name="c42" index="41" slack="0"/>
  <constraint name="c43" index="42" slack="0"/>
  <constraint name="c44" index="43" slack="0"/>
  <constraint name="c45" index="44" slack="0"/>
  <constraint name="c46" index="45" slack="0"/>
  <constraint name="c47" index="46" slack="0"/>
  <constraint name="c48" index="47" slack="0"/>
  <constraint name="c49" index="48" slack="0"/>
  <constraint name="c50" index="49" slack="0"/>
  <constraint name="c51" index="50" slack="0"/>
  <constraint name="c52" index="51" slack="0"/>
  <constraint name="c53" index="52" slack="0"/>
  <constraint name="c54" index="53" slack="0"/>
  <constraint name="c55" index="54" slack="0"/>
  <constraint name="c56" index="55" slack="2"/>
  <constraint name="c57" index="56" slack="1"/>
  <constraint name="c58" index="57" slack="1"/>
  <constraint name="c59" index="58" slack="1"/>
  <constraint name="c60" index="59" slack="3"/>
  <constraint name="c61" index="60" slack="0"/>
  <constraint name="c62" index="61" slack="0"/>
  <constraint name="c63" index="62" slack="0"/>
  <constraint name="c64" index="63" slack="0"/>
  <constraint name="c65" index="64" slack="1"/>
  <constraint name="c66" index="65" slack="1"/>
  <constraint name="c67" index="66" slack="1"/>
  <constraint name="c68" index="67" slack="1"/>
  <constraint name="c69" index="68" slack="1"/>
  <constraint name="c70" index="69" slack="0"/>
  <constraint name="c71" index="70" slack="0"/>
  <constraint name="c72" index="71" slack="1"/>
  <constraint name="c73" index="72" slack="0"/>
  <constraint name="c74" index="73" slack="0"/>
  <constraint name="c75" index="74" slack="1"/>
  <constraint name="c76" index="75" slack="0"/>
  <constraint name="c77" index="76" slack="0"/>
  <constraint name="c78" index="77" slack="0"/>
  <constraint name="c79" index="78" slack="0"/>
  <constraint name="c80" index="79" slack="1"/>
  <constraint name="c81" index="80" slack="0"/>
  <constraint name="c82" index="81" slack="0"/>
  <constraint name="c83" index="82" slack="0"/>
  <constraint name="c84" index="83" slack="0"/>
  <constraint name="c85" index="84" slack="2"/>
  <constraint name="c86" index="85" slack="0"/>
  <constraint name="c87" index="86" slack="0"/>
  <constraint name="c88" index="87" slack="0"/>
  <constraint name="c89" index="88" slack="0"/>
  <constraint name="c90" index="89" slack="3"/>
  <constraint name="c91" index="90" slack="0"/>
  <constraint name="c92" index="91" slack="0"/>
  <constraint name="c93" index="92" slack="0"/>
  <constraint name="c94" index="93" slack="0"/>
  <constraint name="c95" index="94" slack="0"/>
  <constraint name="c96" index="95" slack="1"/>
  <constraint name="c97" index="96" slack="0"/>
  <constraint name="c98" index="97" slack="3"/>
  <constraint name="c99" index="98" slack="0"/>
  <constraint name="c100" index="99" slack="1"/>
  <constraint name="c101" index="100" slack="0"/>
  <constraint name="c102" index="101" slack="1"/>
  <constraint name="c103" index="102" slack="0"/>
  <constraint name="c104" index="103" slack="0"/>
  <constraint name="c105" index="104" slack="1"/>
  <constraint name="c106" index="105" slack="1"/>
  <constraint name="c107" index="106" slack="0"/>
  <constraint name="c108" index="107" slack="1"/>
  <constraint name="c109" index="108" slack="0"/>
  <constraint name="c110" index="109" slack="4"/>
  <constraint name="c111" index="110" slack="1"/>
  <constraint name="c112" index="111" slack="0"/>
  <constraint name="c113" index="112" slack="0"/>
  <constraint name="c114" index="113" slack="2"/>
  <constraint name="c115" index="114" slack="0"/>
  <constraint name="c116" index="115" slack="0"/>
  <constraint name="c117" index="116" slack="3"/>
  <constraint name="c118" index="117" slack="1"/>
  <constraint name="c119" index="118" slack="2"/>
  <constraint name="c120" index="119" slack="2"/>
  <constraint name="c121" index="120" slack="0"/>
  <constraint name="c122" index="121" slack="1"/>
 </linearConstraints>
 <variables>
  <variable name="M1" index="0" value="5"/>
  <variable name="M2" index="1" value="4"/>
  <variable name="x0,8" index="2" value="0"/>
  <variable name="x0,9" index="3" value="1"/>
  <variable name="x1,9" index="4" value="1"/>
  <variable name="x2,9" index="5" value="1"/>
  <variable name="x2,10" index="6" value="-0"/>
  <variable name="x3,8" index="7" value="1"/>
  <variable name="x4,7" index="8" value="1"/>
  <variable name="x5,6" index="9" value="1"/>
  <variable name="x6,4" index="10" value="1"/>
  <variable name="x7,6" index="11" value="-0"/>
  <variable name="x7,7" index="12" value="-0"/>
  <variable name="x7,8" index="13" value="1"/>
  <variable name="x7,9" index="14" value="-0"/>
  <variable name="x8,7" index="15" value="0"/>
  <variable name="x8,8" index="16" value="0"/>
  <variable name="x8,9" index="17" value="1"/>
  <variable name="x9,7" index="18" value="-0"/>
  <variable name="x9,8" index="19" value="-0"/>
  <variable name="x9,9" index="20" value="-0"/>
  <variable name="x9,10" index="21" value="1"/>
  <variable name="x10,6" index="22" value="0"/>
  <variable name="x10,7" index="23" value="-0"/>
  <variable name="x10,8" index="24" value="1"/>
  <variable name="x11,5" index="25" value="0"/>
  <variable name="x11,6" index="26" value="-0"/>
  <variable name="x11,7" index="27" value="1"/>
  <variable name="x12,4" index="28" value="0"/>
  <variable name="x12,5" index="29" value="-0"/>
  <variable name="x12,6" index="30" value="1"/>
  <variable name="x13,2" index="31" value="1"/>
  <variable name="x14,3" index="32" value="1"/>
  <variable name="x14,4" index="33" value="-0"/>
  <variable name="x14,5" index="34" value="-0"/>
  <variable name="x14,6" index="35" value="-0"/>
  <variable name="x14,7" index="36" value="0"/>
  <variable name="x14,8" index="37" value="-0"/>
  <variable name="x14,9" index="38" value="-0"/>
  <variable name="x15,2" index="39" value="1"/>
  <variable name="x15,3" index="40" value="-0"/>
  <variable name="x15,4" index="41" value="-0"/>
  <variable name="x15,5" index="42" value="-0"/>
  <variable name="x15,6" index="43" value="-0"/>
  <variable name="x15,7" index="44" value="-0"/>
  <variable name="x15,8" index="45" value="-0"/>
  <variable name="x16,1" index="46" value="1"/>
  <variable name="x17,6" index="47" value="1"/>
  <variable name="x17,7" index="48" value="-0"/>
  <variable name="x17,8" index="49" value="-0"/>
  <variable name="x17,9" index="50" value="-0"/>
  <variable name="x18,7" index="51" value="1"/>
  <variable name="x18,8" index="52" value="-0"/>
  <variable name="x18,9" index="53" value="-0"/>
  <variable name="x19,7" index="54" value="-0"/>
  <variable name="x19,8" index="55" value="-0"/>
  <variable name="x19,9" index="56" value="-0"/>
  <variable name="x19,10" index="57" value="1"/>
  <variable name="x20,6" index="58" value="1"/>
  <variable name="x20,7" index="59" value="-0"/>
  <variable name="x20,8" index="60" value="-0"/>
  <variable name="x21,5" index="61" value="1"/>
  <variable name="x21,6" index="62" value="-0"/>
  <variable name="x21,7" index="63" value="-0"/>
  <variable name="x22,4" index="64" value="1"/>
  <variable name="x22,5" index="65" value="-0"/>
  <variable name="x22,6" index="66" value="-0"/>
  <variable name="x23,2" index="67" value="1"/>
  <variable name="x24,3" index="68" value="-0"/>
  <variable name="x24,4" index="69" value="-0"/>
  <variable name="x24,5" index="70" value="-0"/>
  <variable name="x24,6" index="71" value="-0"/>
  <variable name="x24,7" index="72" value="1"/>
  <variable name="x24,8" index="73" value="-0"/>
  <variable name="x24,9" index="74" value="-0"/>
  <variable name="x25,2" index="75" value="-0"/>
  <variable name="x25,3" index="76" value="-0"/>
  <variable name="x25,4" index="77" value="0"/>
  <variable name="x25,5" index="78" value="1"/>
  <variable name="x25,6" index="79" value="-0"/>
  <variable name="x25,7" index="80" value="-0"/>
  <variable name="x25,8" index="81" value="-0"/>
  <variable name="x26,1" index="82" value="1"/>
  <variable name="x27,6" index="83" value="-0"/>
  <variable name="x27,7" index="84" value="1"/>
  <variable name="x27,8" index="85" value="-0"/>
  <variable name="x27,9" index="86" value="-0"/>
  <variable name="x28,7" index="87" value="0"/>
  <variable name="x28,8" index="88" value="0"/>
  <variable name="x28,9" index="89" value="1"/>
  <variable name="x29,7" index="90" value="-0"/>
  <variable name="x29,8" index="91" value="-0"/>
  <variable name="x29,9" index="92" value="-0"/>
  <variable name="x29,10" index="93" value="1"/>
  <variable name="x30,6" index="94" value="0"/>
  <variable name="x30,7" index="95" value="-0"/>
  <variable name="x30,8" index="96" value="1"/>
  <variable name="x31,5" index="97" value="-0"/>
  <variable name="x31,6" index="98" value="1"/>
  <variable name="x31,7" index="99" value="-0"/>
  <variable name="x32,4" index="100" value="-0"/>
  <variable name="x32,5" index="101" value="1"/>
  <variable name="x32,6" index="102" value="-0"/>
  <variable name="x33,2" index="103" value="1"/>
  <variable name="x34,3" index="104" value="-0"/>
  <variable name="x34,4" index="105" value="-0"/>
  <variable name="x34,5" index="106" value="1"/>
  <variable name="x34,6" index="107" value="-0"/>
  <variable name="x34,7" index="108" value="-0"/>
  <variable name="x34,8" index="109" value="-0"/>
  <variable name="x34,9" index="110" value="-0"/>
  <variable name="x35,2" index="111" value="-0"/>
  <variable name="x35,3" index="112" value="1"/>
  <variable name="x35,4" index="113" value="-0"/>
  <variable name="x35,5" index="114" value="-0"/>
  <variable name="x35,6" index="115" value="-0"/>
  <variable name="x35,7" index="116" value="-0"/>
  <variable name="x35,8" index="117" value="-0"/>
  <variable name="x36,1" index="118" value="1"/>
  <variable name="x37,4" index="119" value="-0"/>
  <variable name="x37,5" index="120" value="1"/>
  <variable name="x37,6" index="121" value="-0"/>
  <variable name="x37,7" index="122" value="-0"/>
  <variable name="x37,8" index="123" value="-0"/>
  <variable name="x37,9" index="124" value="-0"/>
  <variable name="x38,5" index="125" value="1"/>
  <variable name="x38,6" index="126" value="-0"/>
  <variable name="x38,7" index="127" value="-0"/>
  <variable name="x38,8" index="128" value="-0"/>
  <variable name="x38,9" index="129" value="0"/>
  <variable name="x39,5" index="130" value="-0"/>
  <variable name="x39,6" index="131" value="-0"/>
  <variable name="x39,7" index="132" value="-0"/>
  <variable name="x39,8" index="133" value="-0"/>
  <variable name="x39,9" index="134" value="1"/>
  <variable name="x39,10" index="135" value="-0"/>
  <variable name="x40,4" index="136" value="1"/>
  <variable name="x40,5" index="137" value="-0"/>
  <variable name="x40,6" index="138" value="-0"/>
  <variable name="x40,7" index="139" value="0"/>
  <variable name="x40,8" index="140" value="-0"/>
  <variable name="x41,3" index="141" value="1"/>
  <variable name="x41,4" index="142" value="-0"/>
  <variable name="x41,5" index="143" value="-0"/>
  <variable name="x41,6" index="144" value="-0"/>
  <variable name="x41,7" index="145" value="0"/>
  <variable name="x42,2" index="146" value="1"/>
  <variable name="x42,3" index="147" value="-0"/>
  <variable name="x42,4" index="148" value="-0"/>
  <variable name="x42,5" index="149" value="-0"/>
  <variable name="x42,6" index="150" value="-0"/>
  <variable name="x43,3" index="151" value="-0"/>
  <variable name="x43,4" index="152" value="-0"/>
  <variable name="x43,5" index="153" value="1"/>
  <variable name="x43,6" index="154" value="-0"/>
  <variable name="x43,7" index="155" value="-0"/>
  <variable name="x43,8" index="156" value="-0"/>
  <variable name="x43,9" index="157" value="-0"/>
  <variable name="x44,2" index="158" value="1"/>
  <variable name="x44,3" index="159" value="-0"/>
  <variable name="x44,4" index="160" value="-0"/>
  <variable name="x44,5" index="161" value="-0"/>
  <variable name="x44,6" index="162" value="-0"/>
  <variable name="x44,7" index="163" value="-0"/>
  <variable name="x44,8" index="164" value="-0"/>
  <variable name="x45,1" index="165" value="1"/>
  <variable name="x45,2" index="166" value="-0"/>
  <variable name="x45,3" index="167" value="-0"/>
  <variable name="x45,4" index="168" value="-0"/>
  <variable name="x45,5" index="169" value="-0"/>
  <variable name="x46,4" index="170" value="-0"/>
  <variable name="x46,5" index="171" value="-0"/>
  <variable name="x46,6" index="172" value="-0"/>
  <variable name="x46,7" index="173" value="-0"/>
  <variable name="x46,8" index="174" value="-0"/>
  <variable name="x46,9" index="175" value="1"/>
  <variable name="x46,10" index="176" value="-0"/>
  <variable name="x47,3" index="177" value="-0"/>
  <variable name="x47,4" index="178" value="-0"/>
  <variable name="x47,5" index="179" value="1"/>
  <variable name="x47,6" index="180" value="-0"/>
  <variable name="x47,7" index="181" value="-0"/>
  <variable name="x47,8" index="182" value="0"/>
  <variable name="x47,9" index="183" value="-0"/>
  <variable name="x48,2" index="184" value="-0"/>
  <variable name="x48,3" index="185" value="1"/>
  <variable name="x48,4" index="186" value="-0"/>
  <variable name="x48,5" index="187" value="-0"/>
  <variable name="x48,6" index="188" value="-0"/>
  <variable name="x48,7" index="189" value="-0"/>
  <variable name="x48,8" index="190" value="0"/>
  <variable name="x49,4" index="191" value="-0"/>
  <variable name="x49,5" index="192" value="-0"/>
  <variable name="x49,6" index="193" value="-0"/>
  <variable name="x49,7" index="194" value="-0"/>
  <variable name="x49,8" index="195" value="-0"/>
  <variable name="x49,9" index="196" value="-0"/>
  <variable name="x49,10" index="197" value="1"/>
  <variable name="x50,3" index="198" value="0"/>
  <variable name="x50,4" index="199" value="-0"/>
  <variable name="x50,5" index="200" value="-0"/>
  <variable name="x50,6" index="201" value="-0"/>
  <variable name="x50,7" index="202" value="1"/>
  <variable name="x50,8" index="203" value="-0"/>
  <variable name="x50,9" index="204" value="-0"/>
  <variable name="x51,2" index="205" value="-0"/>
  <variable name="x51,3" index="206" value="0"/>
  <variable name="x51,4" index="207" value="1"/>
  <variable name="x51,5" index="208" value="-0"/>
  <variable name="x51,6" index="209" value="-0"/>
  <variable name="x51,7" index="210" value="-0"/>
  <variable name="x51,8" index="211" value="-0"/>
  <variable name="x52,1" index="212" value="-0"/>
  <variable name="x52,2" index="213" value="1"/>
  <variable name="x52,3" index="214" value="-0"/>
  <variable name="x52,4" index="215" value="-0"/>
  <variable name="x52,5" index="216" value="-0"/>
  <variable name="x52,6" index="217" value="-0"/>
  <variable name="x52,7" index="218" value="-0"/>
  <variable name="x13,1" index="219" value="0"/>
  <variable name="x23,1" index="220" value="0"/>
  <variable name="x33,1" index="221" value="0"/>
  <variable name="x13,3" index="222" value="0"/>
  <variable name="x14,2" index="223" value="0"/>
  <variable name="x23,3" index="224" value="0"/>
  <variable name="x24,2" index="225" value="0"/>
  <variable name="x33,3" index="226" value="0"/>
  <variable name="x34,2" index="227" value="0"/>
  <variable name="x43,2" index="228" value="0"/>
  <variable name="x6,3" index="229" value="0"/>
  <variable name="x37,3" index="230" value="0"/>
  <variable name="x6,5" index="231" value="0"/>
  <variable name="x38,4" index="232" value="0"/>
  <variable name="x7,5" index="233" value="0"/>
  <variable name="x17,5" index="234" value="0"/>
  <variable name="x27,5" index="235" value="0"/>
  <variable name="x8,6" index="236" value="0"/>
  <variable name="x18,6" index="237" value="0"/>
  <variable name="x28,6" index="238" value="0"/>
  <variable name="x0,7" index="239" value="0"/>
  <variable name="x1,8" index="240" value="0"/>
  <variable name="x0,10" index="241" value="0"/>
  <variable name="x1,10" index="242" value="0"/>
  <variable name="x7,10" index="243" value="0"/>
  <variable name="x8,10" index="244" value="0"/>
  <variable name="x14,10" index="245" value="0"/>
  <variable name="x17,10" index="246" value="0"/>
  <variable name="x18,10" index="247" value="0"/>
  <variable name="x24,10" index="248" value="0"/>
  <variable name="x27,10" index="249" value="0"/>
  <variable name="x28,10" index="250" value="0"/>
  <variable name="x34,10" index="251" value="0"/>
  <variable name="x37,10" index="252" value="0"/>
  <variable name="x38,10" index="253" value="0"/>
  <variable name="x43,10" index="254" value="0"/>
 </variables>
</CPLEXSolution>
